c description: tiling of 
c generator: CNFgen (0.9.0)
c copyright: (C) 2012-2020 Massimo Lauria <massimo.lauria@uniroma1.it>
c url: https://massimolauria.net/cnfgen
c
p cnf 20 102
-1 -8 0
-1 -9 0
-1 -14 0
-1 -16 0
-1 -19 0
-8 -9 0
-8 -14 0
-8 -16 0
-8 -19 0
-9 -14 0
-9 -16 0
-9 -19 0
-14 -16 0
-14 -19 0
-16 -19 0
1 8 9 14 16 19 0
-1 -8 0
-1 -12 0
-8 -12 0
1 8 12 0
-1 -12 0
-1 -19 0
-12 -19 0
1 12 19 0
-2 -8 0
-2 -9 0
-2 -11 0
-2 -12 0
-2 -14 0
-2 -19 0
-8 -9 0
-8 -11 0
-8 -12 0
-8 -14 0
-8 -19 0
-9 -11 0
-9 -12 0
-9 -14 0
-9 -19 0
-11 -12 0
-11 -14 0
-11 -19 0
-12 -14 0
-12 -19 0
-14 -19 0
2 8 9 11 12 14 19 0
-2 -8 0
-2 -10 0
-8 -10 0
2 8 10 0
-2 -10 0
2 10 0
-3 -4 0
-3 -7 0
-4 -7 0
3 4 7 0
-3 -4 0
-3 -13 0
-4 -13 0
3 4 13 0
-3 -6 0
-3 -7 0
-6 -7 0
3 6 7 0
-4 -13 0
-4 -17 0
-13 -17 0
4 13 17 0
-5 -8 0
-5 -14 0
-5 -19 0
-8 -14 0
-8 -19 0
-14 -19 0
5 8 14 19 0
-5 -14 0
5 14 0
-6 -7 0
6 7 0
-8 -9 0
-8 -17 0
-8 -19 0
-8 -20 0
-9 -17 0
-9 -19 0
-9 -20 0
-17 -19 0
-17 -20 0
-19 -20 0
8 9 17 19 20 0
-8 -11 0
8 11 0
-9 -13 0
-9 -17 0
-13 -17 0
9 13 17 0
-9 -20 0
9 20 0
15 0
-16 -19 0
16 19 0
18 0